p cnf 223 739 
-1  2 0 
-3  2 0 
 1  3 -2 0 
 1 -4 0 
 3 -4 0 
-1 -3  4 0 
 2 -4 0 
-5  6 0 
-7  6 0 
 5  7 -6 0 
 5 -8 0 
 7 -8 0 
-5 -7  8 0 
 6 -8 0 
-2  9 0 
-8  9 0 
 2  8 -9 0 
 2 -10 0 
 8 -10 0 
-2 -8  10 0 
 9 -10 0 
-4  11 0 
-6  11 0 
 4  6 -11 0 
 4 -12 0 
 6 -12 0 
-4 -6  12 0 
 11 -12 0 
-9  13 0 
-11  13 0 
 9  11 -13 0 
 9 -14 0 
 11 -14 0 
-9 -11  14 0 
 13 -14 0 
-12  15 0 
-10  15 0 
 12  10 -15 0 
 12 -16 0 
 10 -16 0 
-12 -10  16 0 
 15 -16 0 
-17  18 0 
-19  18 0 
 17  19 -18 0 
 17 -20 0 
 19 -20 0 
-17 -19  20 0 
 18 -20 0 
-21  22 0 
-23  22 0 
 21  23 -22 0 
 21 -24 0 
 23 -24 0 
-21 -23  24 0 
 22 -24 0 
-18  25 0 
-24  25 0 
 18  24 -25 0 
 18 -26 0 
 24 -26 0 
-18 -24  26 0 
 25 -26 0 
-20  27 0 
-22  27 0 
 20  22 -27 0 
 20 -28 0 
 22 -28 0 
-20 -22  28 0 
 27 -28 0 
-25  29 0 
-27  29 0 
 25  27 -29 0 
 25 -30 0 
 27 -30 0 
-25 -27  30 0 
 29 -30 0 
-28  31 0 
-26  31 0 
 28  26 -31 0 
 28 -32 0 
 26 -32 0 
-28 -26  32 0 
 31 -32 0 
-13  33 0 
-32  33 0 
 13  32 -33 0 
 13 -34 0 
 32 -34 0 
-13 -32  34 0 
 33 -34 0 
-14  35 0 
-31  35 0 
 14  31 -35 0 
 14 -36 0 
 31 -36 0 
-14 -31  36 0 
 35 -36 0 
-15  37 0 
-30  37 0 
 15  30 -37 0 
 15 -38 0 
 30 -38 0 
-15 -30  38 0 
 37 -38 0 
-16  39 0 
-29  39 0 
 16  29 -39 0 
 16 -40 0 
 29 -40 0 
-16 -29  40 0 
 39 -40 0 
-33  41 0 
-37  41 0 
 33  37 -41 0 
 33 -42 0 
 37 -42 0 
-33 -37  42 0 
 41 -42 0 
-35  43 0 
-39  43 0 
 35  39 -43 0 
 35 -44 0 
 39 -44 0 
-35 -39  44 0 
 43 -44 0 
-41  45 0 
-43  45 0 
 41  43 -45 0 
 41 -46 0 
 43 -46 0 
-41 -43  46 0 
 45 -46 0 
-42  47 0 
-44  47 0 
 42  44 -47 0 
 42 -48 0 
 44 -48 0 
-42 -44  48 0 
 47 -48 0 
-40  49 0 
-36  49 0 
 40  36 -49 0 
 40 -50 0 
 36 -50 0 
-40 -36  50 0 
 49 -50 0 
-38  51 0 
-34  51 0 
 38  34 -51 0 
 38 -52 0 
 34 -52 0 
-38 -34  52 0 
 51 -52 0 
-49  53 0 
-51  53 0 
 49  51 -53 0 
 49 -54 0 
 51 -54 0 
-49 -51  54 0 
 53 -54 0 
-50  55 0 
-52  55 0 
 50  52 -55 0 
 50 -56 0 
 52 -56 0 
-50 -52  56 0 
 55 -56 0 
-57  58 0 
-59  58 0 
 57  59 -58 0 
 57 -60 0 
 59 -60 0 
-57 -59  60 0 
 58 -60 0 
-61  62 0 
-63  62 0 
 61  63 -62 0 
 61 -64 0 
 63 -64 0 
-61 -63  64 0 
 62 -64 0 
-58  65 0 
-64  65 0 
 58  64 -65 0 
 58 -66 0 
 64 -66 0 
-58 -64  66 0 
 65 -66 0 
-60  67 0 
-62  67 0 
 60  62 -67 0 
 60 -68 0 
 62 -68 0 
-60 -62  68 0 
 67 -68 0 
-65  69 0 
-67  69 0 
 65  67 -69 0 
 65 -70 0 
 67 -70 0 
-65 -67  70 0 
 69 -70 0 
-68  71 0 
-66  71 0 
 68  66 -71 0 
 68 -72 0 
 66 -72 0 
-68 -66  72 0 
 71 -72 0 
-73  74 0 
-75  74 0 
 73  75 -74 0 
 73 -76 0 
 75 -76 0 
-73 -75  76 0 
 74 -76 0 
-77  78 0 
-79  78 0 
 77  79 -78 0 
 77 -80 0 
 79 -80 0 
-77 -79  80 0 
 78 -80 0 
-74  81 0 
-80  81 0 
 74  80 -81 0 
 74 -82 0 
 80 -82 0 
-74 -80  82 0 
 81 -82 0 
-76  83 0 
-78  83 0 
 76  78 -83 0 
 76 -84 0 
 78 -84 0 
-76 -78  84 0 
 83 -84 0 
-81  85 0 
-83  85 0 
 81  83 -85 0 
 81 -86 0 
 83 -86 0 
-81 -83  86 0 
 85 -86 0 
-84  87 0 
-82  87 0 
 84  82 -87 0 
 84 -88 0 
 82 -88 0 
-84 -82  88 0 
 87 -88 0 
-69  89 0 
-88  89 0 
 69  88 -89 0 
 69 -90 0 
 88 -90 0 
-69 -88  90 0 
 89 -90 0 
-70  91 0 
-87  91 0 
 70  87 -91 0 
 70 -92 0 
 87 -92 0 
-70 -87  92 0 
 91 -92 0 
-71  93 0 
-86  93 0 
 71  86 -93 0 
 71 -94 0 
 86 -94 0 
-71 -86  94 0 
 93 -94 0 
-72  95 0 
-85  95 0 
 72  85 -95 0 
 72 -96 0 
 85 -96 0 
-72 -85  96 0 
 95 -96 0 
-89  97 0 
-93  97 0 
 89  93 -97 0 
 89 -98 0 
 93 -98 0 
-89 -93  98 0 
 97 -98 0 
-91  99 0 
-95  99 0 
 91  95 -99 0 
 91 -100 0 
 95 -100 0 
-91 -95  100 0 
 99 -100 0 
-97  101 0 
-99  101 0 
 97  99 -101 0 
 97 -102 0 
 99 -102 0 
-97 -99  102 0 
 101 -102 0 
-98  103 0 
-100  103 0 
 98  100 -103 0 
 98 -104 0 
 100 -104 0 
-98 -100  104 0 
 103 -104 0 
-96  105 0 
-92  105 0 
 96  92 -105 0 
 96 -106 0 
 92 -106 0 
-96 -92  106 0 
 105 -106 0 
-94  107 0 
-90  107 0 
 94  90 -107 0 
 94 -108 0 
 90 -108 0 
-94 -90  108 0 
 107 -108 0 
-105  109 0 
-107  109 0 
 105  107 -109 0 
 105 -110 0 
 107 -110 0 
-105 -107  110 0 
 109 -110 0 
-106  111 0 
-108  111 0 
 106  108 -111 0 
 106 -112 0 
 108 -112 0 
-106 -108  112 0 
 111 -112 0 
-45 -112 0 
-46 -111 0 
-47 -110 0 
-48 -109 0 
-53 -104 0 
-54 -103 0 
-55 -102 0 
-56 -101 0 
-1  113 0 
-3  113 0 
 1  3 -113 0 
 1 -114 0 
 3 -114 0 
-1 -3  114 0 
 113 -114 0 
-5  115 0 
-7  115 0 
 5  7 -115 0 
 5 -116 0 
 7 -116 0 
-5 -7  116 0 
 115 -116 0 
-113  117 0 
-116  117 0 
 113  116 -117 0 
 113 -118 0 
 116 -118 0 
-113 -116  118 0 
 117 -118 0 
-114  119 0 
-115  119 0 
 114  115 -119 0 
 114 -120 0 
 115 -120 0 
-114 -115  120 0 
 119 -120 0 
-117  121 0 
-119  121 0 
 117  119 -121 0 
 117 -122 0 
 119 -122 0 
-117 -119  122 0 
 121 -122 0 
-120  123 0 
-118  123 0 
 120  118 -123 0 
 120 -124 0 
 118 -124 0 
-120 -118  124 0 
 123 -124 0 
-17  125 0 
-19  125 0 
 17  19 -125 0 
 17 -126 0 
 19 -126 0 
-17 -19  126 0 
 125 -126 0 
-21  127 0 
-23  127 0 
 21  23 -127 0 
 21 -128 0 
 23 -128 0 
-21 -23  128 0 
 127 -128 0 
-125  129 0 
-128  129 0 
 125  128 -129 0 
 125 -130 0 
 128 -130 0 
-125 -128  130 0 
 129 -130 0 
-126  131 0 
-127  131 0 
 126  127 -131 0 
 126 -132 0 
 127 -132 0 
-126 -127  132 0 
 131 -132 0 
-129  133 0 
-131  133 0 
 129  131 -133 0 
 129 -134 0 
 131 -134 0 
-129 -131  134 0 
 133 -134 0 
-132  135 0 
-130  135 0 
 132  130 -135 0 
 132 -136 0 
 130 -136 0 
-132 -130  136 0 
 135 -136 0 
-121  137 0 
-136  137 0 
 121  136 -137 0 
 121 -138 0 
 136 -138 0 
-121 -136  138 0 
 137 -138 0 
-122  139 0 
-135  139 0 
 122  135 -139 0 
 122 -140 0 
 135 -140 0 
-122 -135  140 0 
 139 -140 0 
-123  141 0 
-134  141 0 
 123  134 -141 0 
 123 -142 0 
 134 -142 0 
-123 -134  142 0 
 141 -142 0 
-124  143 0 
-133  143 0 
 124  133 -143 0 
 124 -144 0 
 133 -144 0 
-124 -133  144 0 
 143 -144 0 
-137  145 0 
-141  145 0 
 137  141 -145 0 
 137 -146 0 
 141 -146 0 
-137 -141  146 0 
 145 -146 0 
-139  147 0 
-143  147 0 
 139  143 -147 0 
 139 -148 0 
 143 -148 0 
-139 -143  148 0 
 147 -148 0 
-145  149 0 
-147  149 0 
 145  147 -149 0 
 145 -150 0 
 147 -150 0 
-145 -147  150 0 
 149 -150 0 
-146  151 0 
-148  151 0 
 146  148 -151 0 
 146 -152 0 
 148 -152 0 
-146 -148  152 0 
 151 -152 0 
-144  153 0 
-140  153 0 
 144  140 -153 0 
 144 -154 0 
 140 -154 0 
-144 -140  154 0 
 153 -154 0 
-142  155 0 
-138  155 0 
 142  138 -155 0 
 142 -156 0 
 138 -156 0 
-142 -138  156 0 
 155 -156 0 
-153  157 0 
-155  157 0 
 153  155 -157 0 
 153 -158 0 
 155 -158 0 
-153 -155  158 0 
 157 -158 0 
-154  159 0 
-156  159 0 
 154  156 -159 0 
 154 -160 0 
 156 -160 0 
-154 -156  160 0 
 159 -160 0 
-57  161 0 
-59  161 0 
 57  59 -161 0 
 57 -162 0 
 59 -162 0 
-57 -59  162 0 
 161 -162 0 
-61  163 0 
-63  163 0 
 61  63 -163 0 
 61 -164 0 
 63 -164 0 
-61 -63  164 0 
 163 -164 0 
-161  165 0 
-164  165 0 
 161  164 -165 0 
 161 -166 0 
 164 -166 0 
-161 -164  166 0 
 165 -166 0 
-162  167 0 
-163  167 0 
 162  163 -167 0 
 162 -168 0 
 163 -168 0 
-162 -163  168 0 
 167 -168 0 
-165  169 0 
-167  169 0 
 165  167 -169 0 
 165 -170 0 
 167 -170 0 
-165 -167  170 0 
 169 -170 0 
-168  171 0 
-166  171 0 
 168  166 -171 0 
 168 -172 0 
 166 -172 0 
-168 -166  172 0 
 171 -172 0 
-73  173 0 
-75  173 0 
 73  75 -173 0 
 73 -174 0 
 75 -174 0 
-73 -75  174 0 
 173 -174 0 
-77  175 0 
-79  175 0 
 77  79 -175 0 
 77 -176 0 
 79 -176 0 
-77 -79  176 0 
 175 -176 0 
-173  177 0 
-176  177 0 
 173  176 -177 0 
 173 -178 0 
 176 -178 0 
-173 -176  178 0 
 177 -178 0 
-174  179 0 
-175  179 0 
 174  175 -179 0 
 174 -180 0 
 175 -180 0 
-174 -175  180 0 
 179 -180 0 
-177  181 0 
-179  181 0 
 177  179 -181 0 
 177 -182 0 
 179 -182 0 
-177 -179  182 0 
 181 -182 0 
-180  183 0 
-178  183 0 
 180  178 -183 0 
 180 -184 0 
 178 -184 0 
-180 -178  184 0 
 183 -184 0 
-169  185 0 
-184  185 0 
 169  184 -185 0 
 169 -186 0 
 184 -186 0 
-169 -184  186 0 
 185 -186 0 
-170  187 0 
-183  187 0 
 170  183 -187 0 
 170 -188 0 
 183 -188 0 
-170 -183  188 0 
 187 -188 0 
-171  189 0 
-182  189 0 
 171  182 -189 0 
 171 -190 0 
 182 -190 0 
-171 -182  190 0 
 189 -190 0 
-172  191 0 
-181  191 0 
 172  181 -191 0 
 172 -192 0 
 181 -192 0 
-172 -181  192 0 
 191 -192 0 
-185  193 0 
-189  193 0 
 185  189 -193 0 
 185 -194 0 
 189 -194 0 
-185 -189  194 0 
 193 -194 0 
-187  195 0 
-191  195 0 
 187  191 -195 0 
 187 -196 0 
 191 -196 0 
-187 -191  196 0 
 195 -196 0 
-193  197 0 
-195  197 0 
 193  195 -197 0 
 193 -198 0 
 195 -198 0 
-193 -195  198 0 
 197 -198 0 
-194  199 0 
-196  199 0 
 194  196 -199 0 
 194 -200 0 
 196 -200 0 
-194 -196  200 0 
 199 -200 0 
-192  201 0 
-188  201 0 
 192  188 -201 0 
 192 -202 0 
 188 -202 0 
-192 -188  202 0 
 201 -202 0 
-190  203 0 
-186  203 0 
 190  186 -203 0 
 190 -204 0 
 186 -204 0 
-190 -186  204 0 
 203 -204 0 
-201  205 0 
-203  205 0 
 201  203 -205 0 
 201 -206 0 
 203 -206 0 
-201 -203  206 0 
 205 -206 0 
-202  207 0 
-204  207 0 
 202  204 -207 0 
 202 -208 0 
 204 -208 0 
-202 -204  208 0 
 207 -208 0 
 149  208 0 
 149 -209 0 
 208 -209 0 
-149 -208  209 0 
 210 -209 0 
 150  207 0 
 150 -211 0 
 207 -211 0 
-150 -207  211 0 
 210 -211 0 
 151  206 0 
 151 -212 0 
 206 -212 0 
-151 -206  212 0 
 210 -212 0 
 152  205 0 
 152 -213 0 
 205 -213 0 
-152 -205  213 0 
 210 -213 0 
 157  200 0 
 157 -214 0 
 200 -214 0 
-157 -200  214 0 
 210 -214 0 
 158  199 0 
 158 -215 0 
 199 -215 0 
-158 -199  215 0 
 210 -215 0 
 159  198 0 
 159 -216 0 
 198 -216 0 
-159 -198  216 0 
 210 -216 0 
 160  197 0 
 160 -217 0 
 197 -217 0 
-160 -197  217 0 
 210 -217 0 
-217  218 0 
-213  218 0 
 217  213 -218 0 
-216  219 0 
-212  219 0 
 216  212 -219 0 
-215  220 0 
-211  220 0 
 215  211 -220 0 
-214  221 0 
-209  221 0 
 214  209 -221 0 
-218  222 0 
-220  222 0 
 218  220 -222 0 
-219  223 0 
-221  223 0 
 219  221 -223 0 
 222  223 0 
